data/solutions/recovery/degenerate/intermediate/flexible/degenerate_intermediate_instance21/102.sol
Elapsed time: 0.15
Upper bound: 33743277.0
Planning weighted value: 2.14179168541e+11
C[0]=33743277.0
C[1]=31575298.0
C[2]=30456091.0
C[3]=29203829.0
C[4]=28742222.0
C[5]=27581018.0
C[6]=27501766.0
C[7]=26168332.0
C[8]=23474654.0
C[9]=22552059.0
C[10]=0.0
C[11]=0.0
y[0]=3
y[1]=5
y[2]=8
y[3]=3
y[4]=8
y[5]=7
y[6]=6
y[7]=2
y[8]=9
y[9]=7
y[10]=0
y[11]=1
y[12]=2
y[13]=3
y[14]=3
y[15]=6
y[16]=5
y[17]=3
y[18]=9
y[19]=4
y[20]=0
y[21]=0
y[22]=5
y[23]=4
y[24]=6
y[25]=5
y[26]=3
y[27]=6
y[28]=5
y[29]=1
y[30]=4
y[31]=0
y[32]=6
y[33]=4
y[34]=5
y[35]=9
y[36]=0
y[37]=1
y[38]=4
y[39]=4
y[40]=6
y[41]=5
y[42]=1
y[43]=3
y[44]=6
y[45]=9
y[46]=0
y[47]=3
y[48]=2
y[49]=2
y[50]=0
y[51]=4
y[52]=6
y[53]=2
y[54]=7
y[55]=5
y[56]=6
y[57]=0
y[58]=4
y[59]=6
y[60]=2
y[61]=7
y[62]=3
y[63]=8
y[64]=8
